(set-info :smt-lib-version 2.7)
(set-logic QF_EIA)
(set-info :source |
Generated by: Florian Frohn
Generator: LoAT
Application: proving lower bounds on the worst-case runtime of transition systems
Target solver: SwInE
Time limit: 1.0
Benchmarks generated by the verification tool LoAT to evaluate the SMT solver
SwInE. We extracted all benchmarks with exponentiation that were generated by
LoAT when analyzing the examples from the category LIA-Lin (linear CHCs with
linear integer arithmetic) of the CHC competitions 2022 and 2023, and when
analyzing the examples from the categories "Termination of Integer Transition
Systems" and "Complexity of Integer Transition Systems" of the Termination and
Complexity Competition 2024. From the entire set, we selected those where
* SwInE v0.1.0 or SwInE-Z3 v0.1.2 failed or needed more than 1 second, or
* SwInE-Z3 v0.1.2 failed without phasing, a technique to prevent SwInE from
  computing with huge constants (described here
  https://arxiv.org/abs/2502.04761)
If several selected benchmarks only differed in lines not containing
exponentiation, we kept only one of them. This benchmark is known to be
satisfiable with the slightly different semantics of exponentiation used by the
versions of SwInE mentioned above.
|)
(set-info :license "https://creativecommons.org/licenses/by/4.0/")
(set-info :category "industrial")
(set-info :status unknown)

(declare-fun i1 () Int)
(declare-fun it1 () Int)
(declare-fun i2 () Int)
(declare-fun it2 () Int)
(declare-fun i3 () Int)
(declare-fun it3 () Int)
(declare-fun it4 () Int)
(declare-fun i4 () Int)
(declare-fun i5 () Int)
(declare-fun it5 () Int)
(declare-fun i6 () Int)
(declare-fun it6 () Int)
(declare-fun it92 () Int)
(declare-fun it1182 () Int)
(declare-fun it1183 () Int)
(declare-fun it1184 () Int)
(declare-fun it1185 () Int)
(declare-fun it1186 () Int)
(declare-fun it1187 () Int)
(declare-fun it117 () Int)
(declare-fun it1188 () Int)
(declare-fun it13 () Int)
(declare-fun it1202 () Int)
(declare-fun it1203 () Int)
(declare-fun it1204 () Int)
(declare-fun it1205 () Int)
(declare-fun it1206 () Int)
(declare-fun it1207 () Int)
(assert (= (+ i1 (- 1)) 0))
(assert (= (+ it1 (- 2)) 0))
(assert (= (+ it2 (* i2 (- 1)) (- 1)) 0))
(assert (= (+ it3 (* i3 (- 1))) 0))
(assert (= (+ (* i4 (- 1)) it4) 0))
(assert (= (+ it5 (* i5 (- 1))) 0))
(assert (= (+ it6 (* i6 (- 1))) 0))
(assert (let ((a!1 (> (+ (+ it3 (* it92 (- 2))) 1) 0))
      (a!2 (> (+ (+ it3 (* it92 (- 2))) 2) 0)))
  (and a!1
       a!2
       (>= (+ it1 (- 2)) 0)
       (>= (+ it92 (- 1)) 0)
       (>= (+ (* it1 (- 1)) 2) 0))))
(assert (= (+ it1182 (* it1 (- 1))) 0))
(assert (= (+ (* it2 (- 1)) it1183 (* it92 (- 2))) 0))
(assert (= (+ (* it3 (- 1)) it1184 (* it92 2)) 0))
(assert (= (+ (+ 0 it1185) (* (** (- 1) it92) (+ 0 it4) (+ 0 (- 1))))
   (+ 0 0)))
(assert (= (+ (* (+ 0 it5) (** (- 1) it92) (+ 0 (- 1))) (+ 0 it1186))
   (+ 0 0)))
(assert (= (+ (+ 0 (* it3 it92 (- 6)))
      (* (+ 0 it3) (** it92 2) (+ 0 12))
      (* (** it92 3) (+ 0 (- 8)))
      (* (** it92 2) (+ 0 6))
      (+ 0 (* it6 (- 3)))
      (+ 0 (* it1187 3))
      (* (** it3 2) (+ 0 it92) (+ 0 (- 6)))
      (+ 0 (* it92 (- 1))))
   (+ 0 0)))
(assert (let ((a!1 (+ (* (+ it117 (- 1)) it13 (- 2))
              it1184
              (* it13 (- 2))
              (* (+ it117 (- 1)) it1188 (- 2))))
      (a!3 (> (+ (+ it1184 (* it13 (- 2))) 1) 0))
      (a!5 (> (+ (+ it1184 (* it13 (- 2))) (* it1188 (- 2)) 1) 0)))
(let ((a!2 (> (+ (+ a!1 (* it1188 (- 2))) 2) 0))
      (a!4 (> (+ (+ a!1 (* it1188 (- 2))) 1) 0)))
  (and a!2
       a!3
       a!4
       (>= (+ it1188 (- 1)) 0)
       (> (+ a!1 1) 0)
       (>= (+ it1182 (- 2)) 0)
       (>= (+ (* it1182 (- 1)) 2) 0)
       (>= (+ it13 (- 1)) 0)
       a!5
       (> (+ a!1 2) 0)
       (>= (+ it117 (- 1)) 0)))))
(assert (= (+ (* it1182 (- 1)) it1202) 0))
(assert (= (+ (* it117 it13 (- 2)) (* it117 it1188 (- 2)) (* it1183 (- 1)) it1203) 0))
(assert (= (+ it1204 (* it117 it13 2) (* it117 it1188 2) (* it1184 (- 1))) 0))
(assert (let ((a!1 (* (+ 0 it1185)
              (** (- 1) (+ (* it117 it13) (* it117 it1188)))
              (+ 0 (- 1)))))
  (= (+ a!1 (+ 0 it1205)) (+ 0 0))))
(assert (let ((a!1 (* (+ 0 it1186)
              (** (- 1) (+ (* it117 it13) (* it117 it1188)))
              (+ 0 (- 1)))))
  (= (+ a!1 (+ 0 it1206)) (+ 0 0))))
(assert (let ((a!1 (+ 0 (+ (* (* it117 it1184) it13 (- 6)) (* it1207 3)))))
(let ((a!2 (+ a!1
              (* (** it117 3) (** it13 2) (+ 0 it1188) (+ 0 (- 24)))
              (+ 0 (* it117 it13 (- 1)))
              (+ 0 (* it117 it1188 (- 1)))
              (* (* (** it117 2) (+ 0 it1184))
                 (+ 0 it13)
                 (+ 0 it1188)
                 (+ 0 24))
              (+ 0 (* (* it117 it1184) it1188 (- 6)))
              (* (** it117 2) (+ 0 it13) (+ 0 it1188) (+ 0 12))
              (* (* (+ 0 it117) (** it1184 2))
                 (+ 0 it1188)
                 (+ 0 (- 6)))
              (+ 0 (* it1187 (- 3)))
              (* (* (** it117 2) (+ 0 it1184)) (** it13 2) (+ 0 12))
              (* (** it117 2) (** it13 2) (+ 0 6))
              (* (** it117 3) (** it1188 3) (+ 0 (- 8)))
              (* (** it117 3) (+ 0 it13) (** it1188 2) (+ 0 (- 24)))
              (* (** it117 2) (** it1188 2) (+ 0 6))
              (* (* (** it117 2) (+ 0 it1184)) (** it1188 2) (+ 0 12))
              (* (** it117 3) (** it13 3) (+ 0 (- 8)))
              (* (* (+ 0 it117) (** it1184 2))
                 (+ 0 it13)
                 (+ 0 (- 6))))))
  (= a!2 (+ 0 0)))))
(assert (and (> it1204 0) (> (+ it1204 (- 1)) 0) (= (+ it1202 (- 2)) 0)))
(check-sat)
(exit)
